unsat
(define-fun inv ((s (_ BitVec 4)) (t (_ BitVec 4))) (_ BitVec 4) (bvnot (bvor s #b0111)))
0.47user 0.00system 0:00.47elapsed 99%CPU (0avgtext+0avgdata 31928maxresident)k
8inputs+8outputs (0major+2568minor)pagefaults 0swaps
